# Created by GDIS version 0.81.0
#

SystemLabel      tube66ch3nmo

NumberOfAtoms    101

NumberOfSpecies  3
%block ChemicalSpeciesLabel
    1    1  H
    2    7  N
    3    6  C
%endblock ChemicalSpeciesLabel

LatticeConstant 1.0 Ang
%block LatticeParameters
  18.000000  18.000000  9.976300  90.000000  90.000000  90.000000
%endblock LatticeParameters

AtomicCoordinatesFormat Fractional
%block AtomicCoordinatesAndAtomicSpecies
    0.33264484    0.64925865    0.86293155   3  C          1
    0.33260946    0.64925498    0.36296720   3  C          2
    0.33272502    0.64917926    0.61303878   3  C          3
    0.33245929    0.64936890    0.11313609   3  C          4
    0.24781478    0.51631478    0.86287114   3  C          5
    0.24779304    0.51632502    0.36290263   3  C          6
    0.24781302    0.51629595    0.61287701   3  C          7
    0.24779129    0.51635592    0.11286148   3  C          8
    0.30321198    0.62222501    0.73795487   3  C          9
    0.30306345    0.62233206    0.23802776   3  C         10
    0.30326457    0.62223769    0.48799282   3  C         11
    0.30317668    0.62234114    0.98798211   3  C         12
    0.25976312    0.55438412    0.73787876   3  C         13
    0.25969198    0.55444105    0.23791246   3  C         14
    0.25977573    0.55440931    0.48792099   3  C         15
    0.25976199    0.55444923    0.98786196   3  C         16
    0.24527807    0.43577017    0.86286766   3  C         17
    0.24527432    0.43575477    0.36286646   3  C         18
    0.24526302    0.43575492    0.61286385   3  C         19
    0.24528879    0.43577921    0.11284141   3  C         20
    0.32351026    0.29907667    0.86292640   3  C         21
    0.32349061    0.29907888    0.36289979   3  C         22
    0.32348294    0.29906977    0.61290137   3  C         23
    0.32351476    0.29909018    0.11290278   3  C         24
    0.25487745    0.39698905    0.73787219   3  C         25
    0.25491318    0.39699721    0.23784738   3  C         26
    0.25487727    0.39698281    0.48786766   3  C         27
    0.25490451    0.39699863   -0.01214069   3  C         28
    0.29495613    0.32705829    0.73790711   3  C         29
    0.29498849    0.32705867    0.23788222   3  C         30
    0.29495992    0.32704272    0.48787531   3  C         31
    0.29499130    0.32705906    0.98791339   3  C         32
    0.39408797    0.26017706    0.86294224   3  C         33
    0.39407486    0.26018664    0.36295172   3  C         34
    0.39407063    0.26018352    0.61292486   3  C         35
    0.39408563    0.26017515    0.11292457   3  C         36
    0.55173269    0.26430781    0.86296268   3  C         37
    0.55175108    0.26429880    0.36306102   3  C         38
    0.55170874    0.26441432    0.61309380   3  C         39
    0.55176700    0.26409597    0.11316966   3  C         40
    0.43290531    0.25085434    0.73794209   3  C         41
    0.43289558    0.25081976    0.23796828   3  C         42
    0.43292617    0.25088546    0.48796405   3  C         43
    0.43294364    0.25084577    0.98794813   3  C         44
    0.51339603    0.25309115    0.73799300   3  C         45
    0.51341871    0.25294287    0.23809241   3  C         46
    0.51344057    0.25314650    0.48806435   3  C         47
    0.51347217    0.25300407    0.98801054   3  C         48
    0.62098982    0.30544548    0.86304552   3  C         49
    0.62095054    0.30550797    0.36311349   3  C         50
    0.62095751    0.30559539    0.61323887   3  C         51
    0.62099330    0.30522894    0.11338176   3  C         52
    0.70501698    0.43911313    0.86408569   3  C         53
    0.70540119    0.43945071    0.36355060   3  C         54
    0.70621642    0.43920811    0.61296563   3  C         55
    0.70508443    0.43945209    0.11315035   3  C         56
    0.64957015    0.33361034    0.73815518   3  C         57
    0.64955338    0.33344807    0.23822799   3  C         58
    0.64910620    0.33366649    0.48817861   3  C         59
    0.64908328    0.33332476    0.98835358   3  C         60
    0.69299596    0.40161501    0.73829014   3  C         61
    0.69255243    0.40170391    0.23833602   3  C         62
    0.69179162    0.40180205    0.48827425   3  C         63
    0.69124719    0.40165605    0.98865966   3  C         64
    0.72045808    0.51789718    0.86469741   3  C         65
    0.71138122    0.51992056    0.36438439   3  C         66
    0.72152818    0.51846023    0.61318103   3  C         67
    0.71123384    0.51993316    0.11273830   3  C         68
    0.63705068    0.66452296    0.86500352   3  C         69
    0.63427433    0.65522632    0.36451426   3  C         70
    0.63801200    0.66461398    0.61330623   3  C         71
    0.63423823    0.65526127    0.11285806   3  C         72
    0.73394797    0.55392645    0.73966791   3  C         73
    0.70234404    0.55830604    0.23859616   3  C         74
    0.70706494    0.56004944    0.48982828   3  C         75
    0.70703574    0.56017318    0.98756933   3  C         76
    0.67480808    0.65784382    0.74003327   3  C         77
    0.66268210    0.62794596    0.23868335   3  C         78
    0.66656706    0.63095478    0.48996727   3  C         79
    0.66669629    0.63120640    0.98770202   3  C         80
    0.56141019    0.69127588    0.86416896   3  C         81
    0.56201206    0.69116566    0.36364476   3  C         82
    0.56214741    0.69195213    0.61298431   3  C         83
    0.56185537    0.69104513    0.11318200   3  C         84
    0.40364379    0.68738299    0.86302842   3  C         85
    0.40366519    0.68721613    0.36306272   3  C         86
    0.40376579    0.68724819    0.61321571   3  C         87
    0.40343761    0.68742435    0.11339775   3  C         88
    0.52314363    0.69999959    0.73830904   3  C         89
    0.52302792    0.69946912    0.23837400   3  C         90
    0.52265678    0.69868243    0.48829225   3  C         91
    0.52222530    0.69845939    0.98872883   3  C         92
    0.44249127    0.69749512    0.73812780   3  C         93
    0.44234881    0.69744126    0.23821748   3  C         94
    0.44227835    0.69694644    0.48813697   3  C         95
    0.44195147    0.69714674    0.98837555   3  C         96
    0.80770677    0.66468676    0.66380502   3  C         97
    0.75000730    0.63193583    0.74978468   2  N         98
    0.82237054    0.72036741    0.70548510   1  H         99
    0.85791149    0.62849083    0.66986771   1  H        100
    0.79277159    0.67163068    0.55547741   1  H        101
%endblock AtomicCoordinatesAndAtomicSpecies
