NumberOfAtoms        8

NumberOfSpecies      2
%block ChemicalSpeciesLabel
    1  56 Ba   
    2  17 Cl   
%endblock ChemicalSpeciesLabel

LatticeConstant 1.0 Ang
%block LatticeParameters
    6.0000    6.0000    6.0000   90.0000   90.0000   90.0000
%endblock LatticeParameters

AtomicCoordinatesFormat Fractional
%block AtomicCoordinatesAndAtomicSpecies
    0.000000000    0.000000000    0.000000000     1
    0.000000000    0.500000000    0.500000000     1
    0.500000000    0.000000000    0.500000000     1
    0.500000000    0.500000000    0.000000000     1
    0.500000000    0.500000000    0.500000000     2
    0.500000000    0.000000000    0.000000000     2
    0.000000000    0.500000000    0.000000000     2
    0.000000000    0.000000000    0.500000000     2
%endblock AtomicCoordinatesAndAtomicSpecies
