SystemLabel fe2o3               

NumberOfAtoms       30

NumberOfSpecies      2
%block ChemicalSpeciesLabel
    1  26 Fe   
    2   8 O    
%endblock ChemicalSpeciesLabel

LatticeConstant 1.0 Ang
%block LatticeParameters
    5.0230    5.0230   13.7080   90.0000   90.0000  120.0000
%endblock LatticeParameters

AtomicCoordinatesFormat Fractional
%block AtomicCoordinatesAndAtomicSpecies
    0.000000000    0.000000000    0.355300000     1
    0.694000000    0.000000000    0.250000000     2
    0.333333000    0.666667000    0.021967000     1
    0.027333000    0.666667000    0.916667000     2
    0.666667000    0.333333000    0.688633000     1
    0.360667000    0.333333000    0.583333000     2
    0.000000000    0.000000000    0.144700000     1
    0.333333000    0.666667000    0.811367000     1
    0.666667000    0.333333000    0.478033000     1
    0.000000000    0.694000000    0.250000000     2
    0.333333000    0.360667000    0.916667000     2
    0.666667000    0.027333000    0.583333000     2
    0.000000000    0.000000000    0.855300000     1
    0.694000000    0.694000000    0.750000000     2
    0.333333000    0.666667000    0.521967000     1
    0.027333000    0.360667000    0.416667000     2
    0.666667000    0.333333000    0.188633000     1
    0.360667000    0.027333000    0.083333000     2
    0.000000000    0.000000000    0.644700000     1
    0.333333000    0.666667000    0.311367000     1
    0.666667000    0.333333000    0.978033000     1
    0.306000000    0.000000000    0.750000000     2
    0.639333000    0.666667000    0.416667000     2
    0.972667000    0.333333000    0.083333000     2
    0.000000000    0.306000000    0.750000000     2
    0.333333000    0.972667000    0.416667000     2
    0.666667000    0.639333000    0.083333000     2
    0.306000000    0.306000000    0.250000000     2
    0.639333000    0.972667000    0.916667000     2
    0.972667000    0.639333000    0.583333000     2
%endblock AtomicCoordinatesAndAtomicSpecies

PAO.BasisType    split

%block PAO.Basis
Fe       4        -0.042
n=4    0    2   E    12.406   4.572
  6.994      2.740
  1.0        1.0
n=3    1    1   E    52.921   1.784
  6.056
  1.0
n=4    1    1   E    18.609   4.886
   8.113
  1.0
n=3    2    2   E     7.198   3.800
  7.485      2.928
  1.0        1.0
O    3     -0.20000
 n=2   0   2   E     0.00000     1.31000
     5.00000     2.58100
     1.00000     1.00000
 n=2   1   2   E     0.00000     5.28000
     6.50000     2.84700
     1.00000     1.00000
 n=3   2   1   E   104.31000     0.00000
     3.92300
     1.00000
%endblock PAO.Basis

SpinPolarized true
