SystemLabel gibbNa2
NumberOfAtoms       56

NumberOfSpecies      4
%block ChemicalSpeciesLabel
    1  13 Al   
    2   8 O    
    3   1 H    
    4  11 Na   
%endblock ChemicalSpeciesLabel

LatticeConstant 1.0 Ang
%block LatticeParameters
    8.8312    5.0646    9.6363   90.3365   93.6714   89.2336
%endblock LatticeParameters

AtomicCoordinatesFormat Fractional
%block AtomicCoordinatesAndAtomicSpecies
    0.165220000    0.533300000    0.000380000     1
    0.338840000    0.011160000   -0.001450000     1
    0.185540000    0.217870000   -0.105210000     2
    0.704150000    0.681850000   -0.114480000     2
    0.499920000    0.088620000   -0.114450000     2
    0.994510000    0.640040000   -0.104330000     2
    0.289410000    0.718480000   -0.106930000     2
    0.832860000    0.164480000   -0.110710000     2
    0.085780000    0.138720000   -0.121610000     3
    0.503170000    0.504570000   -0.063470000     4
    0.497600000    0.078540000   -0.217080000     3
    0.956460000    0.822330000   -0.115460000     3
    0.280730000    0.729770000   -0.210030000     3
    0.819270000    0.168960000   -0.213630000     3
    0.330430000    0.037970000    0.504560000     1
    0.157660000    0.531170000    0.504580000     1
    0.313740000    0.731140000    0.614620000     2
    0.824310000    0.148230000    0.598200000     2
   -0.006430000    0.624580000    0.605480000     2
    0.517440000    0.136650000    0.601840000     2
    0.207670000    0.234970000    0.608690000     2
    0.677230000    0.645940000    0.604980000     2
    0.412350000    0.642450000    0.626850000     3
    0.915880000    0.036570000    0.598760000     3
   -0.002870000    0.612410000    0.707840000     3
    0.551190000    0.320870000    0.611970000     3
    0.205530000    0.229270000    0.710760000     3
    0.693330000    0.663380000    0.710540000     3
    0.835730000    0.485170000   -0.011030000     1
    0.681950000    0.971220000   -0.013310000     1
    0.824880000    0.785520000    0.115780000     2
    0.330670000    0.335820000    0.098850000     2
    0.507710000    0.868820000    0.098600000     2
    0.020150000    0.374010000    0.104560000     2
    0.702610000    0.286890000    0.088620000     2
    0.191490000    0.842550000    0.107910000     2
    0.925030000    0.860650000    0.133980000     3
    0.418320000    0.421150000    0.144930000     3
    0.511790000    0.880380000    0.200580000     3
    0.047140000    0.186090000    0.109910000     3
    0.707130000    0.279960000    0.190910000     3
    0.197750000    0.838390000    0.210730000     3
    0.662450000    0.961020000    0.497070000     1
    0.829890000    0.471020000    0.497690000     1
    0.679770000    0.268440000    0.384940000     2
    0.168060000    0.853810000    0.401970000     2
   -0.002130000    0.377170000    0.396120000     2
    0.473710000    0.866680000    0.396870000     2
    0.785490000    0.766290000    0.393540000     2
    0.311180000    0.354830000    0.397740000     2
    0.582740000    0.360400000    0.370680000     3
    0.076060000    0.964890000    0.399350000     3
   -0.005290000    0.393700000    0.294070000     3
    0.443030000    0.681370000    0.389320000     3
    0.792410000    0.774750000    0.291400000     3
    0.288740000    0.330700000    0.297470000     3
%endblock AtomicCoordinatesAndAtomicSpecies

%block PAO.Basis
        Na  3 
 n=2   1   2
   0.000 0.000
   1.000 1.000
 n=3   0   2
   0.000      0.000
   1.000      1.000
 n=3   1   2
   0.000      0.000
   1.000      1.000
        O   2
 n=2   0   2
   0.000      0.000
   1.000      1.000
 n=2   1   2 P   1
   0.000      0.000
   1.000      1.000
%endblock PAO.Basis

kgrid_cutoff 8.0 Ang

MD.TypeOfRun CG
MD.NumCGSteps 200
MD.MaxForceTol 0.01 eV/Ang
MD.MaxStressTol 100.0000000 bar
MD.VariableCell true

SolutionMethod diagon
DM.NumberPulay 3

MeshCutoff 250 Ry
PAO.EnergyShift 0.01 Ry
PAO.BasisSize DZP

XC.Functional GGA
XC.Authors PBE

LongOutput true
UseSaveData true
DirectPhi true
