SystemLabel gibbsite
NumberOfAtoms       56

NumberOfSpecies      3
%block ChemicalSpeciesLabel
    1  13 Al   
    2   8 O    
    3   1 H    
%endblock ChemicalSpeciesLabel

LatticeConstant 1.0 Ang
%block LatticeParameters
    8.6840    5.0780    9.7360   90.0000   94.5400   90.0000
%endblock LatticeParameters

AtomicCoordinatesFormat Fractional
%block AtomicCoordinatesAndAtomicSpecies
    0.167900000    0.529500000    0.997700000     1
    0.332100000    0.029500000    0.502300000     1
    0.832100000    0.470500000    0.002300000     1
    0.667900000    0.970500000    0.497700000     1
    0.334400000    0.023600000    0.997600000     1
    0.165600000    0.523600000    0.502400000     1
    0.665600000    0.976400000    0.002400000     1
    0.834400000    0.476400000    0.497600000     1
    0.177900000    0.218300000    0.888500000     2
    0.322100000    0.718300000    0.611500000     2
    0.822100000    0.781700000    0.111500000     2
    0.677900000    0.281700000    0.388500000     2
    0.669200000    0.655800000    0.897700000     2
    0.830800000    0.155800000    0.602300000     2
    0.330800000    0.344200000    0.102300000     2
    0.169200000    0.844200000    0.397700000     2
    0.498400000    0.131500000    0.895600000     2
    0.001600000    0.631500000    0.604400000     2
    0.501600000    0.868500000    0.104400000     2
    0.998400000    0.368500000    0.395600000     2
    0.979500000    0.629300000    0.893200000     2
    0.520500000    0.129300000    0.606800000     2
    0.020500000    0.370700000    0.106800000     2
    0.479500000    0.870700000    0.393200000     2
    0.297100000    0.717800000    0.894800000     2
    0.202900000    0.217800000    0.605200000     2
    0.702900000    0.282200000    0.105200000     2
    0.797100000    0.782200000    0.394800000     2
    0.819400000    0.149100000    0.898500000     2
    0.680600000    0.649100000    0.601500000     2
    0.180600000    0.850900000    0.101500000     2
    0.319400000    0.350900000    0.398500000     2
    0.101000000    0.152000000    0.876000000     3
    0.399000000    0.652000000    0.624000000     3
    0.899000000    0.848000000    0.124000000     3
    0.601000000    0.348000000    0.376000000     3
    0.595000000    0.573000000    0.902000000     3
    0.905000000    0.073000000    0.598000000     3
    0.405000000    0.427000000    0.098000000     3
    0.095000000    0.927000000    0.402000000     3
    0.503000000    0.137000000    0.810000000     3
    0.997000000    0.637000000    0.690000000     3
    0.497000000    0.863000000    0.190000000     3
    0.003000000    0.363000000    0.310000000     3
    0.971000000    0.801000000    0.893000000     3
    0.529000000    0.301000000    0.607000000     3
    0.029000000    0.199000000    0.107000000     3
    0.471000000    0.699000000    0.393000000     3
    0.293000000    0.724000000    0.804000000     3
    0.207000000    0.224000000    0.696000000     3
    0.707000000    0.276000000    0.196000000     3
    0.793000000    0.776000000    0.304000000     3
    0.815000000    0.160000000    0.810000000     3
    0.685000000    0.660000000    0.690000000     3
    0.185000000    0.840000000    0.190000000     3
    0.315000000    0.340000000    0.310000000     3
%endblock AtomicCoordinatesAndAtomicSpecies

MD.TypeOfRun Broyden
MD.NumCGSteps 1000
MD.MaxForceTol 0.01 eV/Ang
MD.VariableCell false
MD.MaxStressTol 200 bar

SolutionMethod diagon
DM.NumberPulay 5
DM.MixingWeight 0.25
ElectronicTemperature 0 K

kgrid_cutoff 12.0 Ang

MeshCutoff 300 Ry

XC.functional GGA
XC.Authors    PBE

LongOutput true
UseSaveData false

PAO.SplitNorm    0.25
PAO.SplitNormH   0.50

PAO.SoftDefault true
PAO.SoftPotential 100.0 Ry
PAO.SoftInnerRadius 0.95

%block PAO.Basis
Al   3 
 n=3   0   2  
     7.0     0.0
     1.0     1.0
 n=3   1   2 
     7.0     0.0
     1.0     1.0
 n=3   2   1 E 80.0 1.0
     7.0
     1.0
O     3 
 n=2    0    3
   7.0 0.0 0.0
   1.0 1.0 1.0
 n=2    1    3
   7.0 0.0 0.0
   1.0 1.0 1.0 
 n=3    2    2 E 120.0 0.00
   7.0 0.0
   1.0 1.0
H  2
 n=1 0 3
   7.0 0.0 0.0
   1.0 1.0 1.0
 n=2 1 2  E 70.0 0.0
   3.5 0.0
   1.0 1.0
%endblock PAO.Basis