alloc_report_level 4
SystemLabel gibbNa1
NumberOfAtoms       56

NumberOfSpecies      4
%block ChemicalSpeciesLabel
    1  13 Al   
    2   8 O    
    3   1 H    
    4  11 Na   
%endblock ChemicalSpeciesLabel

LatticeConstant 1.0 Ang
%block LatticeParameters
    8.7720    5.0139    9.6681   89.7747   93.5626   90.4579
%endblock LatticeParameters

AtomicCoordinatesFormat Fractional
%block AtomicCoordinatesAndAtomicSpecies
    0.167280000    0.541890000   -0.008970000     1
    0.335320000    0.028510000   -0.006070000     1
    0.180310000    0.229660000   -0.115760000     2
    0.669330000    0.645990000   -0.093800000     2
    0.505070000    0.122430000   -0.109080000     2
    0.977720000    0.638280000   -0.105600000     2
    0.288560000    0.738000000   -0.118010000     2
    0.821070000    0.144600000   -0.103580000     2
    0.081610000    0.140640000   -0.129870000     3
    0.588100000    0.532940000   -0.059670000     3
    0.507690000    0.075270000   -0.208190000     3
    0.945500000    0.825830000   -0.111820000     3
    0.272520000    0.765240000   -0.223990000     3
    0.808500000    0.157900000   -0.205920000     3
    0.330340000    0.032620000    0.505630000     1
    0.169050000    0.553710000    0.507890000     1
    0.300800000    0.752020000    0.611920000     2
    0.828000000    0.140060000    0.596290000     2
   -0.008440000    0.630970000    0.601350000     2
    0.525870000    0.134560000    0.602250000     2
    0.210400000    0.247250000    0.604130000     2
    0.681500000    0.631420000    0.600510000     2
    0.451760000    0.505870000    0.741880000     4
    0.918880000    0.026850000    0.595110000     3
   -0.004220000    0.615370000    0.702750000     3
    0.566780000    0.316640000    0.589130000     3
    0.194450000    0.223350000    0.702980000     3
    0.710320000    0.653760000    0.699350000     3
    0.840400000    0.465090000    0.004680000     1
    0.667440000    0.973570000    0.005850000     1
    0.821510000    0.776160000    0.113550000     2
    0.329880000    0.355410000    0.088560000     2
    0.498810000    0.876440000    0.102980000     2
    0.024160000    0.369650000    0.101110000     2
    0.709990000    0.274790000    0.105570000     2
    0.184650000    0.856000000    0.098780000     2
    0.919590000    0.864780000    0.132960000     3
    0.421630000    0.465010000    0.105880000     3
    0.497170000    0.883000000    0.205460000     3
    0.057530000    0.183480000    0.110580000     3
    0.708180000    0.273830000    0.208430000     3
    0.192970000    0.845670000    0.202310000     3
    0.662590000    0.952810000    0.491790000     1
    0.839310000    0.464670000    0.492000000     1
    0.682160000    0.267090000    0.382590000     2
    0.170510000    0.863480000    0.384900000     2
    0.006300000    0.379580000    0.394380000     2
    0.478920000    0.859640000    0.394390000     2
    0.789690000    0.764800000    0.390730000     2
    0.327890000    0.362500000    0.397930000     2
    0.583740000    0.356130000    0.368800000     3
    0.080710000    0.978490000    0.388430000     3
    0.005720000    0.402780000    0.293550000     3
    0.441860000    0.672500000    0.396300000     3
    0.791430000    0.769060000    0.288930000     3
    0.306790000    0.341170000    0.297690000     3
%endblock AtomicCoordinatesAndAtomicSpecies

%block PAO.Basis
Al          2                    # Species label, number of l-shells
 n=3   0   2                         # n, l, Nzeta
   6.111      5.259
   1.000      1.000
 n=3   1   2 P   1                   # n, l, Nzeta, Polarization, NzetaPol
   8.045      6.265
   1.000      1.000
O           2                    # Species label, number of l-shells
 n=2   0   2                         # n, l, Nzeta
   3.475      2.448
   1.000      1.000
 n=2   1   2 P   1                   # n, l, Nzeta, Polarization, NzetaPol
   3.937      2.418
   1.000      1.000
H           1                    # Species label, number of l-shells
 n=1   0   2 P   1                   # n, l, Nzeta, Polarization, NzetaPol
   5.205      3.903
   1.000      1.000
        Na  2 
 n=2   1   2
   0.000 0.000
   1.000 1.000
 n=3   0   2
   0.000      0.000
   1.000      1.000
%endblock PAO.Basis

kgrid_cutoff 8.0 Ang

MD.TypeOfRun CG
MD.NumCGSteps 4
#MD.NumCGSteps 200
MD.MaxForceTol 0.01 eV/Ang
MD.MaxStressTol 100.0000000 bar
MD.VariableCell true

SolutionMethod diagon
DM.NumberPulay 3

MeshCutoff 250 Ry
PAO.EnergyShift 0.01 Ry

XC.Functional GGA
XC.Authors PBE

LongOutput true
UseSaveData true
DirectPhi true
