SystemLabel      silsesqui_c5h5_25

NumberOfAtoms    36

NumberOfSpecies  4
%block ChemicalSpeciesLabel
    1    8  O
    2    1  H
    3    6  C
    4   14  Si
%endblock ChemicalSpeciesLabel

LatticeConstant 1.0 Ang
%block LatticeParameters
  25.000000  25.000000  25.000000  90.000000  90.000000  90.000000
%endblock LatticeParameters

AtomicCoordinatesFormat NotScaledCartesianAng
%block AtomicCoordinatesAndAtomicSpecies
    4.22677820    7.24256588    4.31565570   1       1  O
    6.93275756    4.53487805    4.31385857   1       2  O
    6.87828248    7.23465558    8.19337089   1       3  O
    4.20163914    4.53392087    8.11528759   1       4  O
    4.17211254    7.24050697    8.14166909   1       5  O
    6.90685724    4.51471146    8.18868791   1       6  O
    4.22711072    4.53040516    4.31508880   1       7  O
    6.93056074    7.24290203    4.32123117   1       8  O
    5.58410883    2.44949069    3.80279954   2       9  H
    5.51740646    9.31972418    8.67142293   2      10  H
    2.15839831    5.88627224    3.76195959   2      11  H
    9.27728949    5.90631726    8.93186261   3      12  C
    2.09908494    5.86037191    8.62300368   2      13  H
    9.03135890    5.89041448    3.89107562   2      14  H
    5.52702683    2.44055171    8.65308903   2      15  H
    5.58208699    9.33011105    3.82406171   2      16  H
    2.84907329    5.88703319    6.20397268   1      17  O
    8.19399365    5.88611374    6.28581086   1      18  O
    5.58250762    3.17874040    6.23014413   1      19  O
    5.56940477    8.58472368    6.24619154   1      20  O
    5.58250571    3.65272738    4.65102869   4      21  Si
    5.53647278    8.11340935    7.82703997   4      22  Si
    3.31038375    5.87997852    7.78676923   4      23  Si
    7.79773028    5.88857512    4.69448221   4      24  Si
    3.34548943    5.88636309    4.63220263   4      25  Si
    7.78144888    5.88514953    7.88555212   4      26  Si
    5.55826110    3.64849314    7.81149929   4      27  Si
    5.57867196    8.12101791    4.66361382   4      28  Si
    9.96683437    7.04338410    9.39787873   3      29  C
   10.05381105    4.78328594    9.37159579   3      30  C
   11.17831198    6.62233741   10.12586321   3      31  C
   11.22195432    5.24065685   10.10438911   3      32  C
   11.98218521    4.59589322   10.55023612   2      33  H
    9.80136963    3.73280631    9.18944961   2      34  H
    9.65711253    8.08313420    9.25066504   2      35  H
   11.89949885    7.29924386   10.59053199   2      36  H
%endblock AtomicCoordinatesAndAtomicSpecies


MD.TypeOfRun Broyden
MD.NumCGSteps 4000
MD.MaxForceTol 0.005 eV/Ang
MD.VariableCell false
MD.MaxStressTol 200 bar

SolutionMethod diagon

DM.NumberPulay 5
DM.MixingWeight 0.25

MeshCutoff 250 Ry

kgrid_cutoff 12.0 Ang

PAO.EnergyShift  0.01 Ry
PAO.SplitNorm    0.25
PAO.SplitNormH   0.50

PAO.SoftDefault true
PAO.SoftPotential 100.0 Ry
PAO.SoftInnerRadius 0.90

%block PAO.Basis
Si     3
 n=3    0    2
   0.0 0.0 
   1.0 1.0 
 n=3    1    2
   0.0 0.0
   1.0 1.0
 n=3    2    1 E 100.0 0.0
   6.0
   1.0
O     3
 n=2    0    2
   8.0 0.0 
   1.0 1.0 
 n=2    1    2
   8.0 0.0 
   1.0 1.0 
 n=3    2    1 E 100.0 0.0
   8.0
   1.0
C     3
 n=2    0    2
   6.0 0.0 
   1.0 1.0 
 n=2    1    2
   6.0 0.0 
   1.0 1.0 
 n=3    2    1 E 100.0 0.0
   6.0
   1.0
H     2
 n=1    0    2
   0.0 0.0 
   1.0 1.0 
 n=2    1    1 E 100.0 0.0
   6.0 
   1.0
%endblock PAO.Basis

XC.functional GGA
XC.Authors    PBE

LongOutput true
UseSaveData true