SystemLabel      ag_111_C82_9La1

NumberOfAtoms    299

NumberOfSpecies  3
%block ChemicalSpeciesLabel
    1   57  La_nopcc
    2    6  C
    3   47  Ag
%endblock ChemicalSpeciesLabel

LatticeConstant 1.0 Ang
%block LatticeVectors
  17.3717010000    0.0000000000    0.0000000000
   0.0000000000   15.2742840000    0.0000000000
   0.0000000000    0.0000000000   34.3429040000
%endblock LatticeVectors

AtomicCoordinatesFormat NotScaledCartesianAng
%block AtomicCoordinatesAndAtomicSpecies
     8.497329254    10.584301054    20.473995800    1
    10.482676974     5.031284314    21.714110020    2
     9.823364874     4.651815144    20.504591540    2
    10.490697244     5.023160954    19.296771630    2
     7.529834154     6.226290414    23.592174710    2
     8.332325054     5.246027914    22.901888980    2
     9.713171034     5.359018634    22.905760430    2
     4.785774884     7.813795224    19.258729520    2
     4.893443614     7.071279384    20.479948410    2
     4.777570424     7.821717494    21.695505350    2
     5.500112534     7.424288594    22.884731560    2
     6.264004404     6.261891754    22.897093370    2
     6.279989774     6.245990424    18.077597350    2
     6.354325364     5.430153354    19.279435860    2
     5.701223114     5.840149724    20.486856810    2
     6.346104934     5.437951714    21.701341100    2
     5.515994084     7.408450504    18.076905760    2
     8.352530054     4.532341534    20.500117600    2
     7.633337314     4.799273484    21.705654730    2
     9.729281664     5.343033604    18.097709820    2
     8.348509454     5.230430664    18.093633310    2
     7.641614444     4.791576974    19.288192520    2
     7.300378534     8.589145724    16.780128770    2
     6.000304894     8.576285354    17.382665250    2
     7.948065664     9.864649594    16.703710320    2
    10.363542964     6.435061244    17.399752720    2
     9.601392744     7.499558354    16.818370460    2
     8.134245414     7.380026754    16.814170940    2
     7.550441174     6.206226544    17.391737720    2
    12.172438544     7.949712284    18.098298490    2
    11.606600394     6.679300004    18.094208210    2
    11.510006194     9.024623504    17.400728160    2
    10.228855904     8.827905184    16.789853830    2
     9.384336054     9.982092344    16.710051730    2
    11.843524184    10.244534324    18.099796980    2
    10.874925444    12.150630774    19.317156040    2
    10.936824834    11.340172484    18.122478380    2
     9.733305584    11.217112294    17.360028800    2
     4.742397104     9.251893754    19.249384000    2
     5.437118364    11.265806534    20.467610220    2
     4.755513564     9.992550474    20.469628040    2
     4.734824554     9.259783744    21.694770410    2
     7.399736244    11.027344184    17.349770840    2
     6.187274824    10.955390374    18.103460940    2
     5.470257234     9.727307014    18.079257580    2
     6.114925734    11.768178564    19.301236750    2
     8.504893834    11.869102284    17.787064240    2
     9.661879604    12.831331584    19.737949730    2
     8.434571394    12.699564724    18.963782920    2
     7.186631884    12.659077474    19.727344330    2
     5.980286734     8.596599504    23.574144250    2
     7.924124364     9.888811704    24.257142040    2
     7.276430454     8.613251714    24.185193940    2
     8.110262144     7.403828594    24.165299760    2
     9.577265154     7.523639854    24.169277100    2
    10.343165114     6.455338184    23.600481130    2
     6.108002724    11.775005024    21.635008130    2
     6.172812984    10.970337244    22.838539680    2
     5.455117284     9.742788214    22.866391320    2
     7.380176164    11.047048974    23.599537260    2
     7.182256734    12.662648084    21.210111430    2
     9.657293004    12.835593184    21.215507580    2
     8.425132944    12.706910994    21.981662590    2
     8.488062424    11.885851584    23.164898720    2
    11.650173674     5.868927494    21.717479030    2
    12.229368394     6.370722184    20.506735580    2
    11.657899324     5.861148194    19.295765790    2
     9.360413524    10.006661434    24.260893630    2
    10.204940294     8.851947324    24.193893810    2
    11.490354574     9.044770484    23.590652420    2
    12.157082574     7.965019104    22.904516830    2
    11.591303304     6.694825384    22.913335770    2
     9.713744894    11.237647674    23.605215260    2
    10.867524244    12.158439304    21.649277390    2
    10.922203674    11.356116514    22.849992370    2
    11.828562134    10.260284424    22.886036050    2
    12.821230164     8.467342424    19.284015850    2
    12.827959324     7.715829454    20.504322980    2
    12.813525894     8.475116824    21.719668840    2
    12.624355934     9.901066724    21.718836660    2
    11.622106594    11.773809644    20.486921110    2
    12.493420244    10.623789284    20.493845720    2
    12.631731614     9.893130784    19.274441790    2
     4.343123150     2.545374500     4.800511980    3
     1.447726630     2.545535020     4.798505460    3
     2.894960600     5.091270990     4.798539870    3
     5.790843160     1.678130880     2.424102800    3
     1.447839500     4.223807090     2.424114140    3
     4.343065140     4.223323570     2.424940920    3
     2.894877750     1.678105540     2.424087660    3
     5.790774460     5.091234190     4.798501990    3
     4.343118520     2.543807530    14.307570660    3
     1.447945630     2.544178680    14.308503800    3
     2.894781950     5.089939560    14.308535660    3
     5.790959130     1.676896900    11.933034680    3
     1.447884400     4.222524440    11.932983130    3
     4.343190760     4.222800610    11.933575080    3
     2.894856350     1.676876300    11.933001430    3
     5.791013090     5.089858040    14.308393470    3
     4.343197820     2.539435800     9.558790150    3
     1.447434670     2.539324290     9.558291540    3
     2.895226120     5.085076830     9.558272010    3
     5.790994380     1.682090980     7.174197870    3
     1.447976100     4.227783670     7.174106740    3
     4.343024360     4.228079980     7.173594280    3
     2.894808290     1.682040270     7.174047660    3
     5.790548160     5.084988760     9.558294840    3
    10.134035490     2.545529700     4.798515350    3
     7.237626220     2.545544040     4.798519760    3
     8.685846590     5.091103100     4.800592940    3
    11.580758330     1.678126760     2.424080980    3
     7.237642410     4.223827950     2.424037150    3
    10.134036100     4.223834880     2.424033800    3
     8.685862380     1.677629330     2.424808790    3
    11.580862850     5.091227130     4.798514890    3
    10.134160720     2.544113440    14.308388150    3
     7.237543030     2.544109660    14.308421920    3
     8.685887510     5.089632960    14.307576090    3
    11.580654030     1.676916340    11.933043250    3
     7.237522790     4.222623320    11.933084740    3
    10.134185890     4.222623120    11.933099310    3
     8.685897340     1.677069710    11.933631730    3
    11.580656520     5.089858150    14.308367200    3
    10.133799810     2.539316030     9.558335040    3
     7.237876750     2.539335840     9.558306170    3
     8.685872870     5.085179830     9.558804400    3
    11.580637970     1.682073540     7.174211200    3
     7.237513160     4.227805590     7.174151400    3
    10.134167280     4.227813380     7.174149490    3
     8.685859060     1.682291750     7.173628690    3
    11.581139500     5.085002230     9.558293010    3
    15.923971750     2.545520450     4.798518080    3
    13.028555720     2.545372530     4.800512330    3
    14.476789500     5.091292320     4.798551040    3
    17.371682220     1.677630520     2.425033520    3
    13.028625720     4.223322600     2.424901030    3
    15.923866110     4.223806910     2.424113090    3
    14.476852500     1.678105900     2.424077580    3
    17.371690600     5.091092080     4.800490380    3
    15.923800590     2.544145660    14.308466560    3
    13.028595500     2.543831580    14.307582880    3
    14.477010880     5.089932600    14.308512840    3
    17.371652600     1.677166860    11.933598220    3
    13.028514270     4.222785670    11.933578310    3
    15.923826320     4.222536660    11.933003250    3
    14.476915260     1.676881130    11.933026620    3
    17.371695920     5.089544010    14.307574120    3
    15.924252250     2.539311970     9.558298430    3
    13.028494960     2.539440870     9.558810850    3
    14.476488520     5.085082910     9.558297010    3
    17.371680900     1.682336890     7.173612130    3
    13.028652460     4.228070600     7.173617540    3
    15.923731970     4.227797030     7.174126790    3
    14.476945840     1.682023990     7.174060770    3
    17.371676210     5.085103300     9.558716490    3
     4.343123140     7.636802630     4.800511600    3
     1.447726610     7.636963250     4.798505320    3
     2.894960620    10.182700850     4.798539900    3
     5.790843120     6.769558970     2.424101420    3
     1.447839460     9.315235010     2.424112450    3
     4.343065140     9.314751500     2.424939220    3
     2.894877790     6.769533640     2.424086290    3
     5.790774440    10.182664050     4.798502010    3
     4.343118520     7.635235540    14.307572690    3
     1.447945600     7.635606680    14.308505820    3
     2.894781970    10.181367500    14.308536880    3
     5.790959090     6.768323160    11.933034660    3
     1.447884250     9.313952260    11.932983110    3
     4.343190740     9.314229000    11.933575180    3
     2.894856390     6.768302560    11.933001410    3
     5.791013080    10.181285970    14.308394680    3
     4.343197820     7.630863960     9.558790040    3
     1.447434640     7.630752430     9.558291440    3
     2.895226140    10.176508280     9.558271870    3
     5.790994350     6.773516100     7.174197920    3
     1.447976070     9.319212410     7.174106650    3
     4.343024300     9.319508450     7.173594130    3
     2.894808330     6.773465400     7.174047700    3
     5.790548620    10.176419810     9.558294740    3
    10.134034680     7.636959380     4.798515290    3
     7.237626310     7.636972200     4.798519640    3
     8.685846590    10.182533090     4.800592850    3
    11.580758370     6.769554850     2.424079600    3
     7.237642450     9.315255880     2.424035450    3
    10.134036060     9.315262810     2.424032100    3
     8.685862380     6.769057420     2.424807410    3
    11.580862880    10.182656990     4.798514920    3
    10.134160690     7.635541440    14.308390150    3
     7.237543060     7.635537660    14.308423920    3
     8.685887560    10.181060660    14.307577280    3
    11.580654200     6.768342090    11.933043070    3
     7.237523230     9.314051430    11.933077760    3
    10.134185840     9.314051480    11.933099440    3
     8.685897350     6.768495960    11.933631720    3
    11.580656530    10.181286070    14.308368410    3
    10.133799430     7.630745290     9.558334790    3
     7.237876790     7.630763980     9.558306090    3
     8.685872870    10.176611300     9.558804270    3
    11.580638010     6.773498660     7.174211260    3
     7.237513210     9.319234310     7.174151330    3
    10.134167190     9.319242160     7.174149450    3
     8.685859060     6.773716870     7.173628760    3
    11.581139520    10.176433690     9.558292880    3
    15.923971770     7.636948680     4.798517940    3
    13.028555730     7.636800660     4.800511960    3
    14.476789480    10.182722180     4.798551070    3
    17.371682220     6.769058610     2.425032150    3
    13.028625780     9.314750500     2.424899360    3
    15.923866150     9.315234840     2.424111400    3
    14.476852460     6.769534000     2.424076210    3
    17.371690580    10.182522110     4.800490300    3
    15.923800620     7.635573660    14.308468580    3
    13.028595500     7.635259580    14.307584910    3
    14.477010860    10.181360530    14.308514060    3
    17.371652600     6.768593100    11.933598210    3
    13.028514290     9.314214050    11.933578420    3
    15.923826350     9.313965020    11.933003370    3
    14.476915220     6.768307400    11.933026600    3
    17.371695920    10.180971990    14.307575380    3
    15.924252280     7.630740100     9.558298330    3
    13.028494950     7.630868940     9.558810810    3
    14.476488490    10.176514350     9.558296870    3
    17.371680900     6.773762000     7.173612170    3
    13.028652830     9.319498630     7.173617340    3
    15.923732000     9.319225760     7.174126700    3
    14.476945790     6.773449360     7.174061350    3
    17.371676210    10.176534870     9.558716320    3
     4.343123180    12.728232460     4.800511830    3
     1.447726990    12.728385290     4.798510210    3
     2.894960590    15.274128620     4.798540030    3
     5.790843120    11.860986800     2.424101100    3
     1.447839500    14.406662910     2.424113820    3
     4.343065140    14.406179410     2.424940600    3
     2.894877790    11.860961470     2.424085960    3
     5.790774470    15.274091820     4.798502150    3
     4.343118450    12.726663370    14.307571930    3
     1.447945610    12.727034620    14.308505020    3
     2.894781940    15.272795500    14.308534860    3
     5.790959090    11.859753270    11.933034810    3
     1.447884280    14.405382000    11.932983130    3
     4.343190750    14.405658770    11.933575210    3
     2.894856390    11.859732700    11.933001550    3
     5.791013110    15.272713970    14.308392670    3
     4.343197820    12.722295270     9.558790010    3
     1.447434660    12.722183750     9.558291400    3
     2.895226110    15.267936140     9.558271970    3
     5.790994350    11.864947710     7.174197800    3
     1.447976100    14.410643280     7.174106620    3
     4.343024300    14.410939340     7.173594080    3
     2.894808320    11.864897000     7.174047570    3
     5.790548660    15.267847670     9.558294830    3
    10.134035470    12.728387560     4.798515380    3
     7.237626250    12.728401920     4.798519770    3
     8.685846590    15.273960960     4.800593210    3
    11.580758180    11.860982620     2.424079320    3
     7.237642410    14.406683780     2.424036820    3
    10.134036090    14.406690720     2.424033480    3
     8.685862260    11.860485100     2.424807130    3
    11.580862850    15.274084770     4.798515060    3
    10.134160720    12.726969330    14.308389320    3
     7.237543030    12.726965480    14.308423120    3
     8.685887570    15.272488670    14.307575260    3
    11.580654070    11.859772710    11.933043380    3
     7.237522790    14.405481410    11.933084880    3
    10.134185890    14.405481210    11.933099460    3
     8.685897350    11.859926090    11.933631850    3
    11.580656500    15.272714070    14.308366400    3
    10.133799790    12.722175480     9.558334920    3
     7.237876780    12.722195280     9.558306040    3
     8.685872870    15.268039130     9.558804370    3
    11.580638010    11.864930270     7.174211130    3
     7.237511980    14.410666480     7.174152170    3
    10.134167240    14.410673040     7.174149390    3
     8.685859060    11.865148480     7.173628650    3
    11.581138900    15.267860720     9.558292810    3
    15.923971770    12.728378310     4.798518100    3
    13.028554810    12.728232240     4.800513360    3
    14.476789260    15.274149430     4.798550880    3
    17.371682220    11.860486440     2.425031820    3
    13.028625780    14.406178420     2.424900750    3
    15.923866120    14.406662740     2.424112770    3
    14.476852460    11.860961820     2.424075880    3
    17.371690810    15.273951070     4.800491090    3
    15.923800610    12.727001590    14.308467780    3
    13.028595500    12.726687530    14.307584110    3
    14.477010890    15.272788530    14.308512050    3
    17.371652600    11.860023250    11.933598330    3
    13.028514280    14.405643810    11.933578440    3
    15.923825860    14.405393520    11.933003550    3
    14.476915220    11.859737490    11.933026740    3
    17.371695920    15.272399990    14.307573350    3
    15.924252270    12.722171420     9.558298290    3
    13.028494970    12.722300340     9.558810710    3
    14.476488530    15.267942220     9.558296970    3
    17.371680570    11.865193150     7.173612330    3
    13.028652830    14.410929510     7.173617280    3
    15.923731980    14.410656660     7.174126650    3
    14.476945800    11.864880720     7.174060690    3
    17.371676200    15.267962700     9.558716450    3
%endblock AtomicCoordinatesAndAtomicSpecies

PAO.EnergyShift  0.005 Ry
PAO.SplitNorm    0.25

PAO.SoftDefault true
PAO.SoftPotential 100.0 Ry
PAO.SoftInnerRadius 0.90

%block PAO.Basis 
La_nopcc    4     
 n=5    0    2    
   0.0 0.0
   1.0 1.0
 n=5    1    2    
   0.0 0.0
   1.0 1.0
 n=6    0    2    
   0.0 0.0
   1.0 1.0
 n=5    2    2    
   0.0 0.0
   1.0 1.0
C     2
 n=2    0    2
   0.000   0.000
   1.000   1.000
 n=2    1    2  P 1
   0.000   0.000
   1.000   1.000  
Ag          4   
 n=5   0   2
   0.000      0.000
   1.000      1.000
 n=4   2   2       
   0.000      0.000
   1.000      1.000
 n=5   1   1 
   0.000   
   1.000   
 n=4   3   1 
   6.000   
   1.000   
%endblock PAO.Basis

SolutionMethod diagon

%block kgrid_Monkhorst_Pack
  4.0 0.0  0.0 0.5
  0.0 4.0  0.0 0.5
  0.0 0.0  1.0 0.0
%endblock kgrid_Monkhorst_Pack

ElectronicTemperature 300 K
MaxSCFIterations 100

MeshCutoff 350.0 Ry

DM.MixingWeight      0.15
DM.NumberPulay       5

MD.TypeofRun CG
MD.VariableCell false
MD.NumCGsteps 1000
MD.MaxForceTol 0.01 eV/Ang

XC.functional GGA
XC.authors PBE

LongOutput true
UseSaveData true