SystemLabel al2o3

NumberOfAtoms       30

NumberOfSpecies      2
%block ChemicalSpeciesLabel
    1  13 Al   
    2   8 O    
%endblock ChemicalSpeciesLabel

LatticeConstant 1.0 Ang
%block LatticeParameters
    4.7602    4.7602   12.9933   90.0000   90.0000  120.0000
%endblock LatticeParameters

AtomicCoordinatesFormat Fractional
%block AtomicCoordinatesAndAtomicSpecies
    0.000000000    0.000000000    0.352160000     1
    0.666666667    0.333333333    0.685493333     1
    0.333333333    0.666666667    0.018826667     1
    0.000000000    0.000000000    0.147840000     1
    0.666666667    0.333333333    0.481173333     1
    0.333333333    0.666666667    0.814506667     1
    0.000000000    0.000000000    0.647840000     1
    0.666666667    0.333333333    0.981173333     1
    0.333333333    0.666666667    0.314506667     1
    0.000000000    0.000000000    0.852160000     1
    0.666666667    0.333333333    0.185493333     1
    0.333333333    0.666666667    0.518826667     1
    0.972906667    0.333333333    0.583333333     2
    0.639573333    0.666666667    0.916666667     2
    0.306240000    0.000000000    0.250000000     2
    0.666666667    0.639573333    0.583333333     2
    0.333333333    0.972906667    0.916666667     2
    0.000000000    0.306240000    0.250000000     2
    0.360426667    0.027093333    0.583333333     2
    0.027093333    0.360426667    0.916666667     2
    0.693760000    0.693760000    0.250000000     2
    0.027093333    0.666666667    0.416666667     2
    0.693760000    0.000000000    0.750000000     2
    0.360426667    0.333333333    0.083333333     2
    0.333333333    0.360426667    0.416666667     2
    0.000000000    0.693760000    0.750000000     2
    0.666666667    0.027093333    0.083333333     2
    0.639573333    0.972906667    0.416666667     2
    0.306240000    0.306240000    0.750000000     2
    0.972906667    0.639573333    0.083333333     2
%endblock AtomicCoordinatesAndAtomicSpecies

MD.TypeOfRun Broyden
MD.NumCGSteps 1000
MD.MaxForceTol 0.005 eV/Ang
MD.VariableCell false
MD.MaxStressTol 100 bar

SolutionMethod diagon
DM.NumberPulay 5
DM.MixingWeight 0.3
ElectronicTemperature 0 K

kgrid_cutoff 12.0 Ang

MeshCutoff 400 Ry

XC.functional GGA
XC.Authors    PBE

LongOutput true
UseSaveData true

PAO.SplitNorm    0.25
PAO.SplitNormH   0.50

PAO.SoftDefault true
PAO.SoftPotential 100.0 Ry
PAO.SoftInnerRadius 0.95

%block PAO.Basis
Al   3 
 n=3   0   2  
     7.0     0.0
     1.0     1.0
 n=3   1   2 
     7.0     0.0
     1.0     1.0
 n=3   2   1 E 80.0 1.0
     7.0
     1.0
O     3
 n=2    0    3
   7.0 0.0 0.0
   1.0 1.0 1.0
 n=2    1    3
   7.0 0.0 0.0
   1.0 1.0 1.0
 n=3    2    2 E 120.0 0.00
   7.0 0.0
   1.0 1.0
%endblock PAO.Basis