SystemLabel alunite_k2

NumberOfAtoms       78

NumberOfSpecies      5
%block ChemicalSpeciesLabel
    1  16 S    
    2  13 Al   
    3   8 O    
    4  19 K2
    5   1 H    
%endblock ChemicalSpeciesLabel

LatticeConstant 1.0 Ang
%block LatticeParameters
  7.080404    7.080403   17.566637 89.9892     90.0108    119.9728
%endblock LatticeParameters

AtomicCoordinatesFormat Fractional
%block AtomicCoordinatesAndAtomicSpecies
    0.00007422   -0.00007434    0.30315323   1       1  S
    0.66672826    0.33327258    0.63654146   1       2  S
    0.33336033    0.66663958    0.96969140   1       3  S
   -0.00007396    0.00007378    0.69684664   1       4  S
    0.66663899    0.33336091    0.03030819   1       5  S
    0.33327396    0.66672659    0.36345778   1       6  S
    0.33339289    0.16663896    0.16675259   2       7  Al
    0.00000177    0.49999948    0.49999952   2       8  Al
    0.66660718    0.83336086    0.83324726   2       9  Al
    0.83332473    0.16667506    0.16676748   2      10  Al
    0.50000165    0.49999903    0.49999996   2      11  Al
    0.16667513    0.83332475    0.83323233   2      12  Al
    0.83336096    0.66660698    0.16675258   2      13  Al
    0.50000116   -0.00000106    0.49999948   2      14  Al
    0.16663898    0.33339278    0.83324724   2      15  Al
    0.00017148   -0.00017188    0.38793029   3      16  O
    0.66674788    0.33325243    0.72133444   3      17  O
    0.33340016    0.66659974    0.05448406   3      18  O
   -0.00017094    0.00017035    0.61206962   3      19  O
    0.66659824    0.33340171    0.94551544   3      20  O
    0.33325287    0.66674730    0.27866482   3      21  O
    0.88368887    0.11631129    0.27390799   3      22  O
    0.55040904    0.44959281    0.60722286   3      23  O
    0.21702376    0.78297609    0.94038179   3      24  O
    0.88376367    0.76732512    0.27387362   3      25  O
    0.55047785    0.10075563    0.60723563   3      26  O
    0.21708962    0.43409846    0.94038785   3      27  O
    0.23267485    0.11623610    0.27387368   3      28  O
    0.89924528    0.44952256    0.60723568   3      29  O
    0.56590147    0.78291027    0.94038786   3      30  O
    0.76732549    0.88376346    0.72612623   3      31  O
    0.43409800    0.21708980    0.05961184   3      32  O
    0.10075749    0.55047541    0.39276385   3      33  O
    0.11623640    0.23267441    0.72612616   3      34  O
    0.78291017    0.56590187    0.05961185   3      35  O
    0.44952526    0.89924313    0.39276376   3      36  O
    0.11631168    0.88368846    0.72609208   3      37  O
    0.78297597    0.21702395    0.05961716   3      38  O
    0.44959601    0.55040483    0.39277607   3      39  O
    0.79296976    0.20703076    0.47359991   3      40  O
    0.45945603    0.54054381    0.80687573   3      41  O
    0.12652361    0.87347626    0.14038985   3      42  O
    0.79295788    0.58594765    0.47358128   3      43  O
    0.45941705    0.91893811    0.80682715   3      44  O
    0.12643393    0.25285808    0.14041584   3      45  O
    0.41405266    0.20704265    0.47358130   3      46  O
    0.08106171    0.54058321    0.80682714   3      47  O
    0.74714180    0.87356594    0.14041583   3      48  O
    0.58594888    0.79295554    0.52641815   3      49  O
    0.25285807    0.12643396    0.85958408   3      50  O
    0.91893819    0.45941671    0.19317276   3      51  O
    0.20704499    0.41405155    0.52641821   3      52  O
    0.87356589    0.74714185    0.85958409   3      53  O
    0.54058314    0.08106173    0.19317275   3      54  O
    0.20703232    0.79296827    0.52639963   3      55  O
    0.87347632    0.12652356    0.85961015   3      56  O
    0.54054384    0.45945605    0.19312414   3      57  O
    0.00000003    0.00000000   -0.00000005   4      58  K2
    0.66664231    0.33335770    0.33339475   4      59  K2
    0.33335879    0.66664144    0.66660496   4      60  K2
    0.86283109    0.13716936    0.44591539   5      61  H
    0.52941125    0.47058868    0.77931277   5      62  H
    0.19629800    0.80370198    0.11258887   5      63  H
    0.86271248    0.72555069    0.44583366   5      64  H
    0.52927063    0.05874843    0.77921710   5      65  H
    0.19606746    0.39221173    0.11252195   5      66  H
    0.27444955    0.13728794    0.44583369   5      67  H
    0.94125125    0.47072930    0.77921704   5      68  H
    0.60778816    0.80393242    0.11252192   5      69  H
    0.72555130    0.86271135    0.55416621   5      70  H
    0.39221164    0.19606750    0.88747802   5      71  H
    0.05874877    0.52927043    0.22078274   5      72  H
    0.13728901    0.27444897    0.55416614   5      73  H
    0.80393239    0.60778829    0.88747803   5      74  H
    0.47072943    0.94125120    0.22078274   5      75  H
    0.13717085    0.86282956    0.55408388   5      76  H
    0.80370194    0.19629800    0.88741094   5      77  H
    0.47058889    0.52941101    0.22068714   5      78  H
%endblock AtomicCoordinatesAndAtomicSpecies

MD.TypeOfRun Broyden
MD.NumCGSteps 1000
MD.MaxForceTol 0.005 eV/Ang
MD.VariableCell true
MD.MaxStressTol 100 bar

SolutionMethod diagon
DM.NumberPulay 5
DM.MixingWeight 0.3
ElectronicTemperature 0 K

kgrid_cutoff 12.0 Ang

MeshCutoff 400 Ry

XC.functional GGA
XC.Authors    PBE

LongOutput true
UseSaveData true

PAO.SplitNorm    0.25
PAO.SplitNormH   0.50

PAO.SoftDefault true
PAO.SoftPotential 100.0 Ry
PAO.SoftInnerRadius 0.95

%block PAO.Basis
S     3
 n=3    0    2
   7.0 0.0 
   1.0 1.0
 n=3    1    2
   7.0 0.0    
   1.0 1.0
 n=3 2 1 E 100.0 0.00
   7.0 
   1.0
K2 5  0.85
 n=3   0   2
   7.000      0.000
   1.000      1.000
 n=3   1   2
   7.000      0.000
   1.000      1.000
 n=4   0   2
   7.000      0.000
   1.000      1.000
 n=4   1   1
   7.000
   1.000
 n=3   2   1 E 100.0 6.0
   7.000
   1.000
Al   3 
 n=3   0   2  
     7.0     0.0
     1.0     1.0
 n=3   1   2 
     7.0     0.0
     1.0     1.0
 n=3   2   1 E 80.0 1.0
     7.0
     1.0
O     3
 n=2    0    3
   7.0 0.0 0.0
   1.0 1.0 1.0
 n=2    1    3
   7.0 0.0 0.0
   1.0 1.0 1.0
 n=3    2    2 E 120.0 0.00
   7.0 0.0
   1.0 1.0
H  2 
 n=1 0 3 
   7.0 0.0 0.0
   1.0 1.0 1.0
 n=2 1 2  E 70.0 0.0
   3.5 0.0
   1.0 1.0
%endblock PAO.Basis