SystemLabel      mfi_siv10_350_2_vib

NumberOfAtoms    291

NumberOfSpecies  3
%block ChemicalSpeciesLabel
    1    1  H
    2    8  O
    3   14  Si
%endblock ChemicalSpeciesLabel

LatticeConstant    1.8897268778  Bohr
 
%block LatticeVectors
  20.5740870000     0.0000000000     0.0000000000
   0.0000005494    20.5037820000     0.0000000000
   0.0000003687     0.0000003687    13.7587620000
%endblock LatticeVectors
 
AtomicCoordinatesFormat  NotScaledCartesianBohr
 
%block AtomicCoordinatesAndAtomicSpecies
  16.6155856367     2.5653606603    20.2194645512      3 28.0
  35.8996696403    17.2508917765    24.3770764399      3 28.0
  22.4241255092    21.9716964351    11.3441820410      3 28.0
  22.4519736673    36.7143452764    11.3545465415      3 28.0
  35.9701338912     2.5051215145    24.4073836923      3 28.0
   2.9820130535    21.8321076223     7.1750886788      3 28.0
  16.4886750953    17.2757057259    20.0895530005      3 28.0
  12.0807801415     1.5261357210    23.8653985496      3 28.0
   7.6108738757    38.0345800266    10.8620880747      3 28.0
  31.4930221898    18.4131893111    20.6474167878      3 28.0
  26.8642677576    20.8112120404     7.6644390694      3 28.0
  26.8854808177    37.8423265446     7.6738423388      3 28.0
  31.5981147116     1.4304184882    20.6706688582      3 28.0
   7.4108929147    20.7201910607    10.8695774618      3 28.0
  12.0585586832    18.5423707743    23.8141938141      3 28.0
  10.9682299017     2.7514560118     3.6629966968      3 28.0
   8.8663584149    36.6422392550    16.6509776534      3 28.0
  30.3717780589    17.2214662306    14.8577778804      3 28.0
  28.0394353707    22.0520111884     1.8761591978      3 28.0
  28.1059514233    36.5245531950     1.9084117928      3 28.0
  30.3775240461     2.6613853127    14.9026528423      3 28.0
   8.5565677005    22.0318990263    16.6535420633      3 28.0
  10.9390303029    17.3688469479     3.5873789775      3 28.0
   4.8304750544     2.5181305003     3.6912668256      3 28.0
  14.9863838584    36.6269560664    16.6421734311      3 28.0
  24.2309381401    17.3014631300    14.9172473320      3 28.0
  34.1854202039    22.0062743760     1.8849184396      3 28.0
  34.2555326021    36.4932281612     1.9235858293      3 28.0
  24.2255199026     2.6620966996    14.9119458703      3 28.0
  14.6976898862    22.0011617767    16.6333647886      3 28.0
   4.7907632425    17.1844594880     3.5849885097      3 28.0
   2.8851725206     1.2533615784    24.0520170198      3 28.0
  16.7015350928    37.9475583814    10.9278771598      3 28.0
  22.2315866845    18.5216583323    20.5569656360      3 28.0
  36.0818426232    20.7257119670     7.5361715178      3 28.0
  36.1936730804    37.7833325976     7.5610909876      3 28.0
  22.2868486344     1.3814595098    20.5655223355      3 28.0
  16.6137301658    20.8801926085    10.9791068555      3 28.0
   2.8072757562    18.4143134365    23.9314533578      3 28.0
   7.3515720386     2.5527223128    20.2750784179      3 28.0
  12.2164293270    36.7258869861     7.1765545758      3 28.0
  26.7403112340    17.3023301411    24.2793397433      3 28.0
  31.6151379692    21.9682817003    11.2873932206      3 28.0
  31.6619872695    36.6906114642    11.2910246828      3 28.0
  26.8730081929     2.5492391058    24.2917190073      3 28.0
  12.1168634447    22.0869781538     7.2203221848      3 28.0
   7.2872044674    17.3176399561    20.2315778321      3 28.0
  16.5092236529    32.2972429204    20.1123290053      3 28.0
   2.9766025859     6.8885176359     7.2515001874      3 28.0
  36.0059945541    26.2776754340    24.2322693159      3 28.0
  22.4603204397    12.9950883908    11.3399962523      3 28.0
  22.4291401632     7.0192664218    11.3477154821      3 28.0
  35.9859959250    32.2385009389    24.2177096666      3 28.0
   3.0314934650    12.8524874211     7.1586492076      3 28.0
  16.4522706151    26.3495141428    20.3755209660      3 28.0
  11.9511998416    34.1275292008    23.7209348896      3 28.0
   7.5884815737     5.4134432386    10.8295086558      3 28.0
  31.5003110767    24.5689715594    20.6409700129      3 28.0
  26.9243148893    14.6586802391     7.6348634655      3 28.0
  26.8347306565     5.2463877998     7.6660490081      3 28.0
  31.4446865656    34.0269705903    20.6580207512      3 28.0
   7.4732440400    14.5644153985    10.8460321080      3 28.0
  11.9930474425    24.6926591532    23.9436911801      3 28.0
   8.6147973705     7.0260580571    16.5853141498      3 28.0
  30.2718586262    26.4045809801    14.9971002406      3 28.0
  28.0430878468    12.8431148798     1.9784079868      3 28.0
  28.0512006566     7.0063101008     2.0046246117      3 28.0
  30.2619526989    32.2426550967    14.9954341412      3 28.0
   8.6549529507    12.7997993410    16.5164731493      3 28.0
  10.6231112772    26.5610322610     3.6018850662      3 28.0
  14.7466794751     6.9700824676    16.5275846385      3 28.0
  24.1381099188    26.4122380732    15.0071098370      3 28.0
  34.1738595587    12.8027320663     2.0239545365      3 28.0
  34.1861406290     6.9649477742     2.0327603189      3 28.0
  24.1273929683    32.2559126168    15.0422757659      3 28.0
  14.7946747008    12.7866770472    16.5028469108      3 28.0
  16.6861749099     5.3314005257    10.9301103257      3 28.0
  22.1588275413    24.6612604098    20.5572677595      3 28.0
  36.1852185204    14.5837029541     7.5431276387      3 28.0
  36.1816199806     5.1909337379     7.5712760860      3 28.0
  22.1404261697    33.9841831632    20.5961028511      3 28.0
  16.7568334286    14.7280967076    11.0145821881      3 28.0
   2.8184413067    24.5537163552    23.8752745045      3 28.0
   7.2906733009    32.3748999156    20.1650453984      3 28.0
  12.2607296773     7.1718823794     7.3236312662      3 28.0
  26.7429782097    26.3284368958    24.1105346003      3 28.0
  31.6763525668    12.9026681806    11.0867730676      3 28.0
  31.6199100088     6.9332638030    11.1182940141      3 28.0
  26.6985738131    32.3013858092    24.1399594025      3 28.0
  12.2922077685    13.0467343329     7.3614463659      3 28.0
   7.3278072533    26.3837106822    20.3234332603      3 28.0
  14.7561905880     2.4673931793    22.6709579195      2 16.0
   4.7636004661    37.2060447458    10.0149490834      2 16.0
  34.1029772250    17.3501398298    21.8796244171      2 16.0
  24.2059573031    21.8365042376     8.8334477638      2 16.0
  24.2906767047    36.7171868820     8.8838769102      2 16.0
  34.2810923204     2.3894060425    21.8332874583      2 16.0
   4.7766363079    21.7667484624     9.6764433469      2 16.0
  14.6699673537    17.5175671688    22.5575089802      2 16.0
  11.8974915356     2.5311887832     0.7527534737      2 16.0
   8.0678290199    37.0972976217    13.7356201709      2 16.0
  31.3205545988    17.3837465379    17.7661971823      2 16.0
  27.1155433598    21.8361387492     4.7879465788      2 16.0
  27.1298109484    36.8366768641     4.7928629760      2 16.0
  31.3622371986     2.4551944729    17.7941865078      2 16.0
   7.6432137944    21.7369059803    13.7477300717      2 16.0
  11.9036737603    17.4984839079     0.6868133269      2 16.0
   7.8949338372     2.6178273091     3.8255989477      2 16.0
  11.9303012717    36.7354382716    16.9324361265      2 16.0
  27.2964272180    17.3724998839    14.7426196812      2 16.0
  31.1175458684    22.0257913958     1.7406835823      2 16.0
  31.1857465658    36.4328718865     1.8460485076      2 16.0
  27.2967899562     2.5270769892    14.8279381134      2 16.0
  11.6319566430    21.8400447231    16.8013358419      2 16.0
   7.8581620864    17.3426337483     3.6804184594      2 16.0
   3.9342090345     2.1733481404     0.7900797678      2 16.0
  15.7957686413    37.1099417828    13.7390659910      2 16.0
  23.3237460148    17.6437703604    17.8181569665      2 16.0
  35.1125467345    21.7085452044     4.7857890737      2 16.0
  35.2232651881    36.7941877877     4.8151031146      2 16.0
  23.2398889469     2.3133387112    17.7897292759      2 16.0
  15.6127099973    21.9250785892    13.7053534789      2 16.0
   3.8089170617    17.5403611775     0.7075477880      2 16.0
   4.7196132444     2.3282953746    21.8358711083      2 16.0
  14.7864245397    36.7677794110     8.8463561339      2 16.0
  24.0648404826    17.4854195516    22.7885073665      2 16.0
  34.2471165827    21.8551223650     9.7191366234      2 16.0
  34.3352939188    36.7397742060     9.7734260347      2 16.0
  24.2592549848     2.3242564579    22.7111265666      2 16.0
  14.7976750611    21.9283176672     8.7267994635      2 16.0
   4.6215442299    17.2347905782    21.7515523878      2 16.0
   9.7429346673     2.6737274467    22.2196704115      2 16.0
   9.7068321991    36.7522083397     8.9924942133      2 16.0
  29.0748293441    17.4037108173    22.2665749570      2 16.0
  29.2193835233    21.8477113030     9.3529811254      2 16.0
  29.3178833427    36.8860199388     9.3015369271      2 16.0
  29.2727947148     2.5372834191    22.3570729094      2 16.0
   9.7990926316    21.7428666280     9.2220706430      2 16.0
   9.6393276706    17.5127544508    22.2128305120      2 16.0
  14.4225147347    33.1819936629    22.1796270858      2 16.0
   4.9269413368     6.2649357920     9.5514918739      2 16.0
  34.0908420185    25.5994019393    21.9226793578      2 16.0
  24.3976718241    13.6195997642     9.0336095314      2 16.0
  24.2958666834     6.3549974781     8.9915140019      2 16.0
  33.9716721747    32.9317223432    22.0045236296      2 16.0
   4.9418937701    13.4759713603     9.4900313191      2 16.0
  14.6443724920    25.7827556650    22.8118863184      2 16.0
  12.1129025244    32.9797516020     0.5600977334      2 16.0
   7.6488901640     6.3515774477    13.7432161592      2 16.0
  31.3508134933    25.5949393878    17.7591973809      2 16.0
  26.9533876376    13.6502280204     4.7407144295      2 16.0
  26.9555067562     6.2381102664     4.7723240371      2 16.0
  31.3424091316    33.0294189380    17.7643431007      2 16.0
   7.5770377150    13.5002186759    13.7203663135      2 16.0
  11.6254288532    25.6140289712     0.8428793618      2 16.0
  11.6816674420     6.7001379850    16.6992877752      2 16.0
  27.2033377214    26.0889980969    15.0130145056      2 16.0
  31.1124773182    13.1493249741     1.9991804084      2 16.0
  31.1185131730     6.6674839387     2.0311836605      2 16.0
  27.1945954717    32.5678072156    15.0060076842      2 16.0
  11.7273104721    13.0245940248    16.4783769863      2 16.0
   7.5553461940    26.3896462079     3.6976353396      2 16.0
  15.6372595871     6.1990838199    13.6892280914      2 16.0
  23.0633867912    25.6148454272    17.7739795928      2 16.0
  35.2175247985    13.5439474038     4.8150573541      2 16.0
  35.2518881638     6.1945401618     4.8134799157      2 16.0
  23.0962222034    32.9849491396    17.8448592770      2 16.0
  15.8527185653    13.6389677400    13.7467470003      2 16.0
   3.7547516510    25.4331903029     0.6622310811      2 16.0
   4.4824352952    33.1711384022    21.1407142844      2 16.0
  14.9239786729     6.5308072199     8.7225034336      2 16.0
  24.0876290865    25.7206519198    22.6920886252      2 16.0
  34.4065390280    13.4686533077     9.7862670640      2 16.0
  34.2786951839     6.2257328149     9.7447178009      2 16.0
  24.0133225755    32.9636774176    22.8030017550      2 16.0
  14.9455965919    13.6243961931     8.7987568603      2 16.0
   4.6697852443    25.7076783870    21.7133764038      2 16.0
   9.3657609341    33.1476483395    22.3356569803      2 16.0
   9.9424779210     6.6719868697     9.2995203437      2 16.0
  29.0704319131    25.6000885362    22.2238497001      2 16.0
  29.4361748595    13.6320323707     9.0932984255      2 16.0
  29.3151695136     6.2272962235     9.1985255492      2 16.0
  28.9628360791    33.0402339928    22.1832177276      2 16.0
   9.9669173128    13.6252904770     9.3035870510      2 16.0
   9.6565102555    25.7280273128    22.2293812644      2 16.0
  11.9096510613    37.1981171845    23.8166986833      2 16.0
   7.8805249177     2.3511605764    10.6945114460      2 16.0
  31.4870301793    21.4948913529    20.6773067354      2 16.0
  26.9320441989    17.7313992819     7.6911829804      2 16.0
  26.7982025968     2.1733738988     7.7197385925      2 16.0
  31.4854392641    37.0987744395    20.7078238103      2 16.0
   7.4142166317    17.6390996645    10.8394633916      2 16.0
  12.0318649436    21.6209355072    23.8108028547      2 16.0
   2.8416024922    36.9238334765    24.0081792100      2 16.0
  16.6297297028     2.2677973802    10.7580756852      2 16.0
  22.1274949367    21.5930561178    20.6117729733      2 16.0
  36.0270435750    17.6501047587     7.5606887629      2 16.0
  36.2123186875     2.1132175542     7.5665065906      2 16.0
  22.1158303622    37.0558897567    20.5788053700      2 16.0
  16.5903771698    17.7988764845    11.0283371280      2 16.0
   2.8478721536    21.4843601238    23.7631788809      2 16.0
  16.0546460441     5.1040309503    18.5792344370      2 16.0
  35.4308306397    14.6254668003    25.9053783724      2 16.0
  22.9197587224    24.6073040854    12.8491715824      2 16.0
  22.8715430743    34.1168701243    12.9488637617      2 16.0
  35.4214297339     5.1341984339    25.9048536863      2 16.0
   3.4152707876    24.4331238225     5.6204747002      2 16.0
  15.9741877048    14.5969135005    18.6766341697      2 16.0
  16.1920503891     0.0639977802    18.4521257189      2 16.0
   3.8221057808     0.1312277274     5.3706994156      2 16.0
  35.2537934919    19.6443304898     0.2191232682      2 16.0
  23.0704182362    19.5835747005    13.1987235473      2 16.0
  23.0895619400     0.4018295645    13.1489311483      2 16.0
  35.2493673269     0.1272483195     0.2417625114      2 16.0
   3.6252229333    19.4130699189     5.3641117190      2 16.0
  15.9232344196    19.5977444452    18.1280233699      2 16.0
  16.0604479809    33.8548424530    17.4751882781      2 16.0
   3.6581708877     5.1533018535     4.7864003408      2 16.0
  35.2808478747    24.6547884309     0.7576420506      2 16.0
  23.2233809754    14.5827119872    13.8774159398      2 16.0
  23.2499023145     5.3886412666    13.8457038910      2 16.0
  35.3921929066    33.8681219974     0.7762343468      2 16.0
   3.8443603272    14.4406010256     4.6327694943      2 16.0
  15.6414848310    24.6193051904    17.9506194069      2 16.0
   7.2860015574     5.1325340741    18.6047181134      2 16.0
  12.2342145974    34.1390162898     5.5276772811      2 16.0
  26.8188798721    14.6393101645    25.8118490448      2 16.0
  31.5176961837    24.6157074365    12.8398512540      2 16.0
  31.5019016781    34.0440858935    12.8423335029      2 16.0
  26.8205047793     5.1900996273    25.8594974589      2 16.0
  11.8872347142    24.8074786373     5.7993510604      2 16.0
   7.5097858387    14.7342192528    18.5947875579      2 16.0
   7.6593160233     0.0925001279    18.4368965618      2 16.0
  12.1432638735     0.4317932225     5.3120767939      2 16.0
  26.9783354263    19.6609345488     0.2510721797      2 16.0
  31.5033250652    19.5856987874    13.2421284521      2 16.0
  31.5158320538     0.3266194178    13.2440524745      2 16.0
  27.1388551373     0.1703426173     0.2314000909      2 16.0
  11.9629152689    19.8312951139     5.1231349367      2 16.0
   7.3501743455    19.7737886172    18.3657202141      2 16.0
   7.8676945751    33.8631919480    17.5276529883      2 16.0
  11.9389741033     5.4366855813     4.8030069939      2 16.0
  26.9641963003    24.6945815219     0.7135941584      2 16.0
  31.3519876347    14.5559187436    13.6660168415      2 16.0
  31.3428126278     5.3437363395    13.7411025946      2 16.0
  26.9788933521    33.9000774374     0.7582686579      2 16.0
  12.0490668342    14.7948998531     4.8463661382      2 16.0
   7.6071059006    24.7651778003    17.7137345522      2 16.0
   0.0516449874     2.3577489981    23.6127047310      2 16.0
  19.5392545786    36.8912720625    10.3882362043      2 16.0
  19.4167593312    17.3740406146    21.0123994122      2 16.0
   0.0558187941    21.7057962254     8.0913858743      2 16.0
   0.1512381975    36.6833692607     8.0726102760      2 16.0
  19.5301674436     2.5990945936    21.1987901197      2 16.0
  19.4819813152    21.8681226269    10.4676320276      2 16.0
  38.8303369757    17.3766727337    23.4768760315      2 16.0
  -0.0807937899    32.8935066540    23.1622401326      2 16.0
  19.5529914124     6.3378765818    10.5148108762      2 16.0
  19.3541528314    25.7383501402    21.1874942884      2 16.0
   0.1881446320    13.6412857929     8.0338095048      2 16.0
   0.1202182294     6.2430067596     8.2006664452      2 16.0
  19.3279735760    32.8944268320    21.2011527672      2 16.0
  19.6292100187    13.7977905264    10.4436529888      2 16.0
  38.8603412065    25.5987777699    23.3211799809      2 16.0
  16.2039572418    29.2975587819    19.5400691106      2 16.0
   3.1646071184     9.8563296026     6.4625665129      2 16.0
  35.7916956484    29.2604901042    24.9429002198      2 16.0
  22.6044506101    10.0067763982    12.0411079255      2 16.0
   7.4058460558    29.3636491577    19.5997421445      2 16.0
  12.2249218006    10.1133032951     6.4524354951      2 16.0
  26.8475285284    29.3126220313    24.8199284098      2 16.0
  31.5170005986     9.9221981023    11.8064809370      2 16.0
  11.4401224119    29.4879709161     4.0976260711      2 16.0
   7.8289404911     9.9265959821    17.2782882484      2 16.0
  31.0269717738    29.3253104710    14.3752120087      2 16.0
  27.2908148065     9.9207982971     1.3619272978      2 16.0
  15.6074680445     9.8743334716    17.1208831980      2 16.0
  23.3770580653    29.3368755408    14.3840092110      2 16.0
  34.9352558500     9.8839092593     1.3832402656      2 16.0
   2.7916625817    33.8717411496    23.6198160737      3 28.0
   4.4751470851    26.3845487069     3.5046088349      3 28.0
  10.9175261120    32.4261967945     3.3418420021      3 28.0
   3.1564132508    36.6796704980     7.4303848676      3 28.0
   3.8514577341    32.3880825043     0.1337775357      2 16.0
   7.9036241816    33.1619770708     3.0384239337      2 16.0
   3.1822568770    29.1438128400     4.0677813640      2 16.0
   4.0897482593    33.9568990096     6.2491102706      2 16.0
   3.1117206820    30.2304291264     2.5442783073      1  1.0
   3.0983758727    32.3983547659     6.2635224982      1  1.0
   6.7882961736    33.3677886994     4.5337780231      1  1.0
   5.5128089644    32.8842409817     0.8554762483      1  1.0
%endblock AtomicCoordinatesAndAtomicSpecies
 
MD.TypeOfRun           FC
MD.FCfirst            280
MD.FClast             291
MD.FCdispl             0.0400000000  Bohr

SolutionMethod diagon
DM.NumberPulay 3
DM.MixingWeight         0.2

MeshCutoff 350 Ry

PAO.BasisType    split
%block PAO.Basis
H    2      0.46527
n=1   0   2   E    99.93138     2.59932
     4.20357     1.84463
     1.00000     1.00000
n=2   1   1   E    24.56504     2.20231
     3.52816
     1.00000
O     3     -0.20
 n=2    0    2   E      0.00      1.31
   5.000   2.581
   1.000   1.000
 n=2    1    2   E      0.00      5.28
   6.500   2.487
   1.000   1.000
 n=3    2    1   E    104.31      0.00
   3.923
   1.000
Si    3     -0.33
 n=3    0    2   E    119.34      5.50
   6.042   5.062
   1.000   1.000
 n=3    1    2   E     23.48      5.24
   6.082   4.445
   1.000   1.000
 n=3    2    1   E     20.87      0.00
   5.068
   1.000
%endblock PAO.Basis

XC.functional GGA
XC.Authors    PBE

DirectPhi false

LongOutput true
UseSaveData true

BandLinesScale       pi/a
%block BandLines
 1  0.000  0.000  0.000  \Gamma
%endblock BandLines

Eigenvectors true